c *********************************
c * Circuit generated by BenCGen
c *
c * RippleCarryAdderSubtractor_19_19_19_OutSunT
c *
c * Ports with 1 gate(s): 2
c * Ports with 2 gate(s): 116
c * Total gates: 118
c *********************************
p cnf 156 410
1 60 0
-1 -60 0
1 -59 0
60 -59 0
-1 -60 59 0
59 61 0
-59 -61 0
20 59 -62 0
-20 59 62 0
20 -59 62 0
-20 -59 -62 0
21 59 -63 0
-21 59 63 0
21 -59 63 0
-21 -59 -63 0
22 59 -64 0
-22 59 64 0
22 -59 64 0
-22 -59 -64 0
23 59 -65 0
-23 59 65 0
23 -59 65 0
-23 -59 -65 0
24 59 -66 0
-24 59 66 0
24 -59 66 0
-24 -59 -66 0
25 59 -67 0
-25 59 67 0
25 -59 67 0
-25 -59 -67 0
26 59 -68 0
-26 59 68 0
26 -59 68 0
-26 -59 -68 0
27 59 -69 0
-27 59 69 0
27 -59 69 0
-27 -59 -69 0
28 59 -70 0
-28 59 70 0
28 -59 70 0
-28 -59 -70 0
29 59 -71 0
-29 59 71 0
29 -59 71 0
-29 -59 -71 0
30 59 -72 0
-30 59 72 0
30 -59 72 0
-30 -59 -72 0
31 59 -73 0
-31 59 73 0
31 -59 73 0
-31 -59 -73 0
32 59 -74 0
-32 59 74 0
32 -59 74 0
-32 -59 -74 0
33 59 -75 0
-33 59 75 0
33 -59 75 0
-33 -59 -75 0
34 59 -76 0
-34 59 76 0
34 -59 76 0
-34 -59 -76 0
35 59 -77 0
-35 59 77 0
35 -59 77 0
-35 -59 -77 0
36 59 -78 0
-36 59 78 0
36 -59 78 0
-36 -59 -78 0
37 59 -79 0
-37 59 79 0
37 -59 79 0
-37 -59 -79 0
38 59 -80 0
-38 59 80 0
38 -59 80 0
-38 -59 -80 0
1 62 -82 0
-1 62 82 0
1 -62 82 0
-1 -62 -82 0
82 59 -39 0
-82 59 39 0
82 -59 39 0
-82 -59 -39 0
59 -83 0
82 -83 0
-59 -82 83 0
62 -84 0
1 -84 0
-62 -1 84 0
-83 81 0
-84 81 0
83 84 -81 0
2 63 -86 0
-2 63 86 0
2 -63 86 0
-2 -63 -86 0
86 81 -40 0
-86 81 40 0
86 -81 40 0
-86 -81 -40 0
81 -87 0
86 -87 0
-81 -86 87 0
63 -88 0
2 -88 0
-63 -2 88 0
-87 85 0
-88 85 0
87 88 -85 0
3 64 -90 0
-3 64 90 0
3 -64 90 0
-3 -64 -90 0
90 85 -41 0
-90 85 41 0
90 -85 41 0
-90 -85 -41 0
85 -91 0
90 -91 0
-85 -90 91 0
64 -92 0
3 -92 0
-64 -3 92 0
-91 89 0
-92 89 0
91 92 -89 0
4 65 -94 0
-4 65 94 0
4 -65 94 0
-4 -65 -94 0
94 89 -42 0
-94 89 42 0
94 -89 42 0
-94 -89 -42 0
89 -95 0
94 -95 0
-89 -94 95 0
65 -96 0
4 -96 0
-65 -4 96 0
-95 93 0
-96 93 0
95 96 -93 0
5 66 -98 0
-5 66 98 0
5 -66 98 0
-5 -66 -98 0
98 93 -43 0
-98 93 43 0
98 -93 43 0
-98 -93 -43 0
93 -99 0
98 -99 0
-93 -98 99 0
66 -100 0
5 -100 0
-66 -5 100 0
-99 97 0
-100 97 0
99 100 -97 0
6 67 -102 0
-6 67 102 0
6 -67 102 0
-6 -67 -102 0
102 97 -44 0
-102 97 44 0
102 -97 44 0
-102 -97 -44 0
97 -103 0
102 -103 0
-97 -102 103 0
67 -104 0
6 -104 0
-67 -6 104 0
-103 101 0
-104 101 0
103 104 -101 0
7 68 -106 0
-7 68 106 0
7 -68 106 0
-7 -68 -106 0
106 101 -45 0
-106 101 45 0
106 -101 45 0
-106 -101 -45 0
101 -107 0
106 -107 0
-101 -106 107 0
68 -108 0
7 -108 0
-68 -7 108 0
-107 105 0
-108 105 0
107 108 -105 0
8 69 -110 0
-8 69 110 0
8 -69 110 0
-8 -69 -110 0
110 105 -46 0
-110 105 46 0
110 -105 46 0
-110 -105 -46 0
105 -111 0
110 -111 0
-105 -110 111 0
69 -112 0
8 -112 0
-69 -8 112 0
-111 109 0
-112 109 0
111 112 -109 0
9 70 -114 0
-9 70 114 0
9 -70 114 0
-9 -70 -114 0
114 109 -47 0
-114 109 47 0
114 -109 47 0
-114 -109 -47 0
109 -115 0
114 -115 0
-109 -114 115 0
70 -116 0
9 -116 0
-70 -9 116 0
-115 113 0
-116 113 0
115 116 -113 0
10 71 -118 0
-10 71 118 0
10 -71 118 0
-10 -71 -118 0
118 113 -48 0
-118 113 48 0
118 -113 48 0
-118 -113 -48 0
113 -119 0
118 -119 0
-113 -118 119 0
71 -120 0
10 -120 0
-71 -10 120 0
-119 117 0
-120 117 0
119 120 -117 0
11 72 -122 0
-11 72 122 0
11 -72 122 0
-11 -72 -122 0
122 117 -49 0
-122 117 49 0
122 -117 49 0
-122 -117 -49 0
117 -123 0
122 -123 0
-117 -122 123 0
72 -124 0
11 -124 0
-72 -11 124 0
-123 121 0
-124 121 0
123 124 -121 0
12 73 -126 0
-12 73 126 0
12 -73 126 0
-12 -73 -126 0
126 121 -50 0
-126 121 50 0
126 -121 50 0
-126 -121 -50 0
121 -127 0
126 -127 0
-121 -126 127 0
73 -128 0
12 -128 0
-73 -12 128 0
-127 125 0
-128 125 0
127 128 -125 0
13 74 -130 0
-13 74 130 0
13 -74 130 0
-13 -74 -130 0
130 125 -51 0
-130 125 51 0
130 -125 51 0
-130 -125 -51 0
125 -131 0
130 -131 0
-125 -130 131 0
74 -132 0
13 -132 0
-74 -13 132 0
-131 129 0
-132 129 0
131 132 -129 0
14 75 -134 0
-14 75 134 0
14 -75 134 0
-14 -75 -134 0
134 129 -52 0
-134 129 52 0
134 -129 52 0
-134 -129 -52 0
129 -135 0
134 -135 0
-129 -134 135 0
75 -136 0
14 -136 0
-75 -14 136 0
-135 133 0
-136 133 0
135 136 -133 0
15 76 -138 0
-15 76 138 0
15 -76 138 0
-15 -76 -138 0
138 133 -53 0
-138 133 53 0
138 -133 53 0
-138 -133 -53 0
133 -139 0
138 -139 0
-133 -138 139 0
76 -140 0
15 -140 0
-76 -15 140 0
-139 137 0
-140 137 0
139 140 -137 0
16 77 -142 0
-16 77 142 0
16 -77 142 0
-16 -77 -142 0
142 137 -54 0
-142 137 54 0
142 -137 54 0
-142 -137 -54 0
137 -143 0
142 -143 0
-137 -142 143 0
77 -144 0
16 -144 0
-77 -16 144 0
-143 141 0
-144 141 0
143 144 -141 0
17 78 -146 0
-17 78 146 0
17 -78 146 0
-17 -78 -146 0
146 141 -55 0
-146 141 55 0
146 -141 55 0
-146 -141 -55 0
141 -147 0
146 -147 0
-141 -146 147 0
78 -148 0
17 -148 0
-78 -17 148 0
-147 145 0
-148 145 0
147 148 -145 0
18 79 -150 0
-18 79 150 0
18 -79 150 0
-18 -79 -150 0
150 145 -56 0
-150 145 56 0
150 -145 56 0
-150 -145 -56 0
145 -151 0
150 -151 0
-145 -150 151 0
79 -152 0
18 -152 0
-79 -18 152 0
-151 149 0
-152 149 0
151 152 -149 0
19 80 -154 0
-19 80 154 0
19 -80 154 0
-19 -80 -154 0
154 149 -57 0
-154 149 57 0
154 -149 57 0
-154 -149 -57 0
149 -155 0
154 -155 0
-149 -154 155 0
80 -156 0
19 -156 0
-80 -19 156 0
-155 153 0
-156 153 0
155 156 -153 0
153 59 -58 0
-153 59 58 0
153 -59 58 0
-153 -59 -58 0
